InboundTrucks  = 20;
OutboundTrucks = 15;
InboundDoors   = 4;
OutboundDoors  = 4;
ReleaseTimes    = [0,1,2,3,0,1,2,3,4,0,1,2,3,4,5,0,1,2,3,4,];
UnloadingTimes  = [5,7,4,6,3,8,5,4,6,7,5,6,4,7,3,8,5,4,6,7,];
LoadingTimes    = [6,5,7,4,8,5,6,7,4,5,6,7,4,5,6,];
TransferMatrix  = [| 2,1,3,2,1,3,2,1,3,2,1,3,2,1,3,
                   | 1,3,2,1,3,2,1,3,2,1,3,2,1,3,2,
                   | 3,2,1,3,2,1,3,2,1,3,2,1,3,2,1,
                   | 2,1,2,1,2,1,2,1,2,1,2,1,2,1,2,
                   | 1,2,3,2,1,2,3,2,1,2,3,2,1,2,3,
                   | 3,1,2,3,1,2,3,1,2,3,1,2,3,1,2,
                   | 2,3,1,2,3,1,2,3,1,2,3,1,2,3,1,
                   | 1,2,3,1,2,3,1,2,3,1,2,3,1,2,3,
                   | 3,1,2,3,1,2,3,1,2,3,1,2,3,1,2,
                   | 2,3,1,2,3,1,2,3,1,2,3,1,2,3,1,
                   | 1,3,2,1,3,2,1,3,2,1,3,2,1,3,2,
                   | 3,2,1,3,2,1,3,2,1,3,2,1,3,2,1,
                   | 2,1,3,2,1,3,2,1,3,2,1,3,2,1,3,
                   | 1,2,3,1,2,3,1,2,3,1,2,3,1,2,3,
                   | 3,1,2,3,1,2,3,1,2,3,1,2,3,1,2,
                   | 2,3,1,2,3,1,2,3,1,2,3,1,2,3,1,
                   | 1,2,3,2,1,2,3,2,1,2,3,2,1,2,3,
                   | 3,2,1,3,2,1,3,2,1,3,2,1,3,2,1,
                   | 2,1,2,1,2,1,2,1,2,1,2,1,2,1,2,
                   | 1,3,2,1,3,2,1,3,2,1,3,2,1,3,2,
                   ];
